
Gurobi 10.0.3 (armlinux64, Python) logging started Tue Nov  7 19:02:19 2023

Set parameter Username
Set parameter LogFile to value "gurobi.log"
Academic license - for non-commercial use only - expires 2024-11-06
